TOUR_SECTION
39
46
132
17
41
28
145
167
94
189
117
109
101
36
187
32
22
88
9
35
33
144
128
141
47
180
97
80
149
190
197
165
107
124
166
19
87
200
172
53
61
23
120
11
148
182
131
76
158
140
60
196
49
29
66
31
5
142
57
78
64
116
68
179
114
121
106
26
89
152
91
84
162
90
191
175
58
100
77
127
73
170
45
56
2
104
3
12
98
153
44
151
133
174
99
85
130
65
13
136
27
40
103
157
20
14
95
10
118
63
69
37
181
25
173
1
163
62
59
50
115
67
146
112
51
137
195
194
164
113
70
160
7
139
123
159
8
16
156
161
93
184
72
81
92
24
86
4
30
43
71
38
192
185
193
18
119
126
48
34
111
21
110
105
55
75
83
154
198
15
177
168
178
169
183
42
188
74
150
199
52
125
82
135
79
96
138
102
108
176
147
54
186
129
122
134
6
143
171
155
-1
EOF